
Gurobi 6.5.2 (linux64) logging started Tue Jun  6 14:41:12 2017

Changed value of parameter LogFile to test_cases/mip_solutions/furman_sahinidis/transportation/14sp1_gurobi.log
   Prev: gurobi.log  Default: 
Changed value of parameter Threads to 1
   Prev: 0  Min: 0  Max: 1024  Default: 0
Optimize a model with 5364 rows, 11034 columns and 38138 nonzeros
Coefficient statistics:
  Matrix range    [1e+00, 6e+03]
  Objective range [1e+00, 1e+00]
  Bounds range    [1e+00, 1e+00]
  RHS range       [1e+00, 2e+03]
Presolve removed 5223 rows and 9801 columns
Presolve time: 0.01s
Presolved: 141 rows, 1233 columns, 3587 nonzeros
Variable types: 1177 continuous, 56 integer (56 binary)

Root relaxation: objective 9.058930e+00, 842 iterations, 0.01 seconds

    Nodes    |    Current Node    |     Objective Bounds      |     Work
 Expl Unexpl |  Obj  Depth IntInf | Incumbent    BestBd   Gap | It/Node Time

     0     0    9.05893    0    9          -    9.05893      -     -    0s
H    0     0                      14.0000000    9.05893  35.3%     -    0s
     0     0    9.24538    0   18   14.00000    9.24538  34.0%     -    0s
     0     0    9.31190    0   22   14.00000    9.31190  33.5%     -    0s
     0     0    9.41553    0   26   14.00000    9.41553  32.7%     -    0s
     0     0    9.46529    0   24   14.00000    9.46529  32.4%     -    0s
     0     0    9.98091    0   20   14.00000    9.98091  28.7%     -    0s
     0     0    9.98251    0   21   14.00000    9.98251  28.7%     -    0s
     0     0   10.04019    0   29   14.00000   10.04019  28.3%     -    0s
     0     0   10.12243    0   28   14.00000   10.12243  27.7%     -    0s
     0     0   10.12298    0   28   14.00000   10.12298  27.7%     -    0s
     0     0   10.14864    0   27   14.00000   10.14864  27.5%     -    0s
     0     0   10.19325    0   27   14.00000   10.19325  27.2%     -    0s
     0     0   10.19624    0   28   14.00000   10.19624  27.2%     -    0s
     0     0   10.22506    0   30   14.00000   10.22506  27.0%     -    0s
     0     0   10.24016    0   31   14.00000   10.24016  26.9%     -    0s
     0     0   10.32592    0   32   14.00000   10.32592  26.2%     -    0s
     0     0   10.32838    0   32   14.00000   10.32838  26.2%     -    0s
     0     0   10.32946    0   34   14.00000   10.32946  26.2%     -    0s
     0     0   10.32946    0   33   14.00000   10.32946  26.2%     -    0s
     0     2   10.47018    0   33   14.00000   10.47018  25.2%     -    0s
  3271  1324   12.22071   30    8   14.00000   11.04253  21.1%  64.8    5s
  9956  3846   12.96226   38   10   14.00000   11.04253  21.1%  52.4   10s
 17712  6236   12.26691   31   13   14.00000   11.04253  21.1%  48.2   15s
 25521  8365   11.50077   29   10   14.00000   11.04253  21.1%  46.9   20s
 33403 10504   12.29866   27   16   14.00000   11.10602  20.7%  46.1   25s
 40932 12424   11.38595   28   12   14.00000   11.20629  20.0%  45.7   30s
 48590 14066 infeasible   50        14.00000   11.29158  19.3%  45.2   35s
 56367 15319   13.00000   32   10   14.00000   11.37295  18.8%  44.8   40s
 63953 16499     cutoff   36        14.00000   11.44760  18.2%  44.5   45s
 71146 17623 infeasible   33        14.00000   11.52225  17.7%  44.3   50s
 78571 18585   11.59636   34   10   14.00000   11.59056  17.2%  44.1   55s
 86630 19619   11.75630   35    6   14.00000   11.66052  16.7%  43.8   60s
 94466 20487   12.09460   31    7   14.00000   11.72685  16.2%  43.6   65s
 102421 21503     cutoff   35        14.00000   11.78463  15.8%  43.3   70s
 110239 22219 infeasible   39        14.00000   11.84329  15.4%  43.2   75s
 117823 22831   12.38884   32    7   14.00000   11.90307  15.0%  43.1   80s
 125455 23336   12.38037   33    4   14.00000   11.95896  14.6%  43.1   85s
 133569 24200     cutoff   52        14.00000   12.00000  14.3%  42.9   90s
 141982 25482   13.00000   34    3   14.00000   12.00000  14.3%  42.6   95s
 150080 26142     cutoff   40        14.00000   12.02281  14.1%  42.5  100s
 158240 26307   12.11031   34   12   14.00000   12.05508  13.9%  42.4  105s
 167284 26114     cutoff   31        14.00000   12.08863  13.7%  42.1  110s
 176340 26187     cutoff   38        14.00000   12.12564  13.4%  41.7  115s
 185270 25990   13.00000   34    5   14.00000   12.16063  13.1%  41.4  120s
 194174 25208   12.37845   32    7   14.00000   12.19745  12.9%  41.2  125s
 202794 24275   12.33312   37    8   14.00000   12.23536  12.6%  40.9  130s
 213051 22933   13.00000   31    7   14.00000   12.29436  12.2%  40.5  135s
 223027 21276   12.81420   34    8   14.00000   12.36481  11.7%  40.2  140s
 233624 19193   13.00000   36   10   14.00000   12.45459  11.0%  39.8  145s
 243020 17002     cutoff   36        14.00000   12.55049  10.4%  39.5  150s
 253828 14250   12.77077   32    7   14.00000   12.69110  9.35%  39.1  155s
 265590  9858   13.00000   33   12   14.00000   12.95418  7.47%  38.6  160s
 280289  5207     cutoff   39        14.00000   13.00000  7.14%  37.6  165s
 292481  2213 infeasible   34        14.00000   13.00000  7.14%  37.1  170s

Explored 300124 nodes (11075059 simplex iterations) in 173.32 seconds
Thread count was 1 (of 8 available processors)

Optimal solution found (tolerance 4.00e-02)
Best objective 1.400000000000e+01, best bound 1.400000000000e+01, gap 0.0%

Gurobi 6.5.2 (linux64) logging started Mon Jul 24 16:45:31 2017

Changed value of parameter LogFile to data/mip_solutions/furman_sahinidis/transportation/14sp1_gurobi.log
   Prev: gurobi.log  Default: 
Changed value of parameter Threads to 1
   Prev: 0  Min: 0  Max: 1024  Default: 0
Optimize a model with 5364 rows, 11034 columns and 38138 nonzeros
Coefficient statistics:
  Matrix range    [1e+00, 6e+03]
  Objective range [1e+00, 1e+00]
  Bounds range    [1e+00, 1e+00]
  RHS range       [1e+00, 2e+03]
Presolve removed 5223 rows and 9801 columns
Presolve time: 0.01s
Presolved: 141 rows, 1233 columns, 3587 nonzeros
Variable types: 1177 continuous, 56 integer (56 binary)

Root relaxation: objective 9.058930e+00, 842 iterations, 0.01 seconds

    Nodes    |    Current Node    |     Objective Bounds      |     Work
 Expl Unexpl |  Obj  Depth IntInf | Incumbent    BestBd   Gap | It/Node Time

     0     0    9.05893    0    9          -    9.05893      -     -    0s
H    0     0                      14.0000000    9.05893  35.3%     -    0s
     0     0    9.24538    0   18   14.00000    9.24538  34.0%     -    0s
     0     0    9.31190    0   22   14.00000    9.31190  33.5%     -    0s
     0     0    9.41553    0   26   14.00000    9.41553  32.7%     -    0s
     0     0    9.46529    0   24   14.00000    9.46529  32.4%     -    0s
     0     0    9.98091    0   20   14.00000    9.98091  28.7%     -    0s
     0     0    9.98251    0   21   14.00000    9.98251  28.7%     -    0s
     0     0   10.04019    0   29   14.00000   10.04019  28.3%     -    0s
     0     0   10.12243    0   28   14.00000   10.12243  27.7%     -    0s
     0     0   10.12298    0   28   14.00000   10.12298  27.7%     -    0s
     0     0   10.14864    0   27   14.00000   10.14864  27.5%     -    0s
     0     0   10.19325    0   27   14.00000   10.19325  27.2%     -    0s
     0     0   10.19624    0   28   14.00000   10.19624  27.2%     -    0s
     0     0   10.22506    0   30   14.00000   10.22506  27.0%     -    0s
     0     0   10.24016    0   31   14.00000   10.24016  26.9%     -    0s
     0     0   10.32592    0   32   14.00000   10.32592  26.2%     -    0s
     0     0   10.32838    0   32   14.00000   10.32838  26.2%     -    0s
     0     0   10.32946    0   34   14.00000   10.32946  26.2%     -    0s
     0     0   10.32946    0   33   14.00000   10.32946  26.2%     -    0s
     0     2   10.47018    0   33   14.00000   10.47018  25.2%     -    0s

Cutting planes:
  Cover: 10
  Implied bound: 185
  MIR: 157
  Flow cover: 144
  Network: 33

Explored 410 nodes (66579 simplex iterations) in 2.00 seconds
Thread count was 1 (of 8 available processors)

Time limit reached
Best objective 1.400000000000e+01, best bound 1.200000000000e+01, gap 14.2857%

Gurobi 6.5.2 (linux64) logging started Mon Jul 24 16:58:18 2017

Changed value of parameter LogFile to data/mip_solutions/furman_sahinidis/transportation/14sp1_gurobi.log
   Prev: gurobi.log  Default: 
Changed value of parameter Threads to 1
   Prev: 0  Min: 0  Max: 1024  Default: 0
Optimize a model with 5364 rows, 11034 columns and 38138 nonzeros
Coefficient statistics:
  Matrix range    [1e+00, 6e+03]
  Objective range [1e+00, 1e+00]
  Bounds range    [1e+00, 1e+00]
  RHS range       [1e+00, 2e+03]
Presolve removed 5223 rows and 9801 columns
Presolve time: 0.01s
Presolved: 141 rows, 1233 columns, 3587 nonzeros
Variable types: 1177 continuous, 56 integer (56 binary)

Root relaxation: objective 9.058930e+00, 842 iterations, 0.01 seconds

    Nodes    |    Current Node    |     Objective Bounds      |     Work
 Expl Unexpl |  Obj  Depth IntInf | Incumbent    BestBd   Gap | It/Node Time

     0     0    9.05893    0    9          -    9.05893      -     -    0s
H    0     0                      14.0000000    9.05893  35.3%     -    0s
     0     0    9.24538    0   18   14.00000    9.24538  34.0%     -    0s
     0     0    9.31190    0   22   14.00000    9.31190  33.5%     -    0s
     0     0    9.41553    0   26   14.00000    9.41553  32.7%     -    0s
     0     0    9.46529    0   24   14.00000    9.46529  32.4%     -    0s
     0     0    9.98091    0   20   14.00000    9.98091  28.7%     -    0s
     0     0    9.98251    0   21   14.00000    9.98251  28.7%     -    0s
     0     0   10.04019    0   29   14.00000   10.04019  28.3%     -    0s
     0     0   10.12243    0   28   14.00000   10.12243  27.7%     -    0s
     0     0   10.12298    0   28   14.00000   10.12298  27.7%     -    0s
     0     0   10.14864    0   27   14.00000   10.14864  27.5%     -    0s
     0     0   10.19325    0   27   14.00000   10.19325  27.2%     -    0s
     0     0   10.19624    0   28   14.00000   10.19624  27.2%     -    0s
     0     0   10.22506    0   30   14.00000   10.22506  27.0%     -    0s
     0     0   10.24016    0   31   14.00000   10.24016  26.9%     -    0s
     0     0   10.32592    0   32   14.00000   10.32592  26.2%     -    0s
     0     0   10.32838    0   32   14.00000   10.32838  26.2%     -    0s
     0     0   10.32946    0   34   14.00000   10.32946  26.2%     -    0s
     0     0   10.32946    0   33   14.00000   10.32946  26.2%     -    0s
     0     2   10.47018    0   33   14.00000   10.47018  25.2%     -    0s

Explored 924 nodes (100460 simplex iterations) in 3.00 seconds
Thread count was 1 (of 8 available processors)

Time limit reached
Best objective 1.400000000000e+01, best bound 1.200000000000e+01, gap 14.2857%

Gurobi 6.5.2 (linux64) logging started Wed Jul 26 13:54:53 2017

Changed value of parameter LogFile to data/mip_solutions/furman_sahinidis/transportation/14sp1_gurobi.log
   Prev: gurobi.log  Default: 
Changed value of parameter Threads to 1
   Prev: 0  Min: 0  Max: 1024  Default: 0
Optimize a model with 5364 rows, 11034 columns and 38138 nonzeros
Coefficient statistics:
  Matrix range    [1e+00, 6e+03]
  Objective range [1e+00, 1e+00]
  Bounds range    [1e+00, 1e+00]
  RHS range       [1e+00, 2e+03]
Presolve removed 5223 rows and 9801 columns
Presolve time: 0.01s
Presolved: 141 rows, 1233 columns, 3587 nonzeros
Variable types: 1177 continuous, 56 integer (56 binary)

Root relaxation: objective 9.058930e+00, 842 iterations, 0.01 seconds

    Nodes    |    Current Node    |     Objective Bounds      |     Work
 Expl Unexpl |  Obj  Depth IntInf | Incumbent    BestBd   Gap | It/Node Time

     0     0    9.05893    0    9          -    9.05893      -     -    0s
H    0     0                      14.0000000    9.05893  35.3%     -    0s
     0     0    9.24538    0   18   14.00000    9.24538  34.0%     -    0s
     0     0    9.31190    0   22   14.00000    9.31190  33.5%     -    0s
     0     0    9.41553    0   26   14.00000    9.41553  32.7%     -    0s
     0     0    9.46529    0   24   14.00000    9.46529  32.4%     -    0s
     0     0    9.98091    0   20   14.00000    9.98091  28.7%     -    0s
     0     0    9.98251    0   21   14.00000    9.98251  28.7%     -    0s
     0     0   10.04019    0   29   14.00000   10.04019  28.3%     -    0s
     0     0   10.12243    0   28   14.00000   10.12243  27.7%     -    0s
     0     0   10.12298    0   28   14.00000   10.12298  27.7%     -    0s
     0     0   10.14864    0   27   14.00000   10.14864  27.5%     -    0s
     0     0   10.19325    0   27   14.00000   10.19325  27.2%     -    0s
     0     0   10.19624    0   28   14.00000   10.19624  27.2%     -    0s
     0     0   10.22506    0   30   14.00000   10.22506  27.0%     -    0s
     0     0   10.24016    0   31   14.00000   10.24016  26.9%     -    0s
     0     0   10.32592    0   32   14.00000   10.32592  26.2%     -    0s
     0     0   10.32838    0   32   14.00000   10.32838  26.2%     -    0s
     0     0   10.32946    0   34   14.00000   10.32946  26.2%     -    0s
     0     0   10.32946    0   33   14.00000   10.32946  26.2%     -    0s
     0     2   10.47018    0   33   14.00000   10.47018  25.2%     -    0s
  3313  1352   11.55547   34   12   14.00000   11.04253  21.1%  64.5    5s
 10126  3885   11.04253   30   10   14.00000   11.04253  21.1%  52.1   10s
 18105  6350   11.44859   27   10   14.00000   11.04253  21.1%  48.2   15s
 26144  8508   12.41992   35    6   14.00000   11.04253  21.1%  46.8   20s
 34105 10672   12.45051   33    4   14.00000   11.11626  20.6%  46.1   25s
 41613 12602   12.06654   36    5   14.00000   11.21317  19.9%  45.7   30s
 49492 14208     cutoff   39        14.00000   11.30147  19.3%  45.2   35s
 57360 15485   12.16126   38    2   14.00000   11.38079  18.7%  44.7   40s
 65192 16669   12.99649   35    8   14.00000   11.46299  18.1%  44.5   45s
 72885 17875     cutoff   36        14.00000   11.53962  17.6%  44.2   50s
 80920 18894 infeasible   37        14.00000   11.61126  17.1%  44.0   55s
 89092 19912   12.40333   30    5   14.00000   11.68176  16.6%  43.7   60s
 96874 20841   13.00000   46    4   14.00000   11.74304  16.1%  43.5   65s
 105176 21812     cutoff   38        14.00000   11.80441  15.7%  43.3   70s
 112614 22435   12.23768   29   11   14.00000   11.86003  15.3%  43.2   75s
 120827 23028   12.76362   40    8   14.00000   11.92373  14.8%  43.1   80s
 128635 23611     cutoff   30        14.00000   11.97979  14.4%  43.0   85s
 137214 24827   12.00725   35    8   14.00000   12.00000  14.3%  42.8   90s
 145627 25865   13.00000   39    6   14.00000   12.00642  14.2%  42.6   95s
 153732 26230   13.00000   28    6   14.00000   12.03879  14.0%  42.5  100s
 163140 26292 infeasible   39        14.00000   12.07060  13.8%  42.1  105s
 172207 26291     cutoff   36        14.00000   12.10712  13.5%  41.8  110s
 181362 26125   12.41723   31   13   14.00000   12.14460  13.3%  41.5  115s
 190425 25597   12.37845   31    4   14.00000   12.18210  13.0%  41.3  120s
 199246 24682   13.00000   38   11   14.00000   12.21949  12.7%  41.0  125s
 208744 23471   13.00000   32    2   14.00000   12.27080  12.4%  40.7  130s
 218646 21986   13.00000   36    2   14.00000   12.33413  11.9%  40.3  135s
 228570 20232   13.00000   34   11   14.00000   12.40789  11.4%  40.0  140s
 238869 17997   13.00000   37   11   14.00000   12.50555  10.7%  39.6  145s
 248969 15556   12.64378   30    2   14.00000   12.62075  9.85%  39.3  150s
 260168 12336   13.00000   32    5   14.00000   12.80477  8.54%  38.9  155s
 274494  6915   13.00000   32    5   14.00000   13.00000  7.14%  38.0  160s
 287586  3537   13.00000   38   11   14.00000   13.00000  7.14%  37.3  165s
 299608   154     cutoff   35        14.00000   13.00000  7.14%  36.9  170s

Explored 300124 nodes (11075059 simplex iterations) in 170.31 seconds
Thread count was 1 (of 8 available processors)

Optimal solution found (tolerance 4.00e-02)
Best objective 1.400000000000e+01, best bound 1.400000000000e+01, gap 0.0%
